399,794
635,702
776,593
1023,517
829,429
769,420
810,805
847,919
611,850
635,702
822,212
898,-21
491,32
874,140
822,212
368,507
207,481
512,283
558,237
387,257
245,89
427,152
512,283
641,326
657,389
734,379
745,207
769,420
709,583
776,593
1023,517
966,314
718,520
708,491
708,459
660,427
567,443
591,406
657,389
660,427
628,433
591,406
567,443
399,794
718,520
1137,554
734,379
653,229
558,237
427,152
382,-6
532,112
591,406
